g3 0 1 0	# problem haverly1_pq
 33 24 1 0 24	# vars, constraints, objectives, ranges, eqns
 8 1	# nonlinear constraints, objectives
 0 0	# network constraints: nonlinear, linear
 4 4 4	# nonlinear vars in constraints, objectives, both
 0 0 0 1	# linear network variables; functions; arith, flags
 0 0 0 0 0	# discrete variables: binary, integer, nonlinear (b,c,o)
 99 10	# nonzeros in Jacobian, gradients
 0 0	# max name lengths: constraints, variables
 0 0 0 0 0	# common exprs: b,c,o,c1,o1
b
2 0
2 0
2 0
2 0
2 0
2 0
2 0
2 0
2 0
2 0
2 0
2 0
2 0
2 0
2 0
2 0
2 0
2 0
2 0
2 0
2 0
2 0
2 0
2 0
2 0
2 0
2 0
2 0
2 0
2 0
2 0
2 0
2 0
r
4 0
4 0
4 0
4 0
4 300
4 300
4 0
4 0
4 1
4 100
4 200
4 0
4 0
4 300
4 0
4 0
4 0
4 0
4 0
4 100
4 200
4 300
4 100
4 200
C0
o0
o2
o2
n3
v0
v2
o2
v1
v2
C1
o0
o2
o2
n3
v0
v3
o2
v1
v3
C2
o0
o2
o2
n3
v0
v2
o2
v1
v2
C3
o0
o2
o2
n3
v0
v3
o2
v1
v3
C4
o0
o2
v0
v2
o2
v0
v3
C5
o0
o2
v1
v2
o2
v1
v3
C6
o0
o2
v0
v2
o2
v0
v3
C7
o0
o2
v1
v2
o2
v1
v3
C8
n0
C9
n0
C10
n0
C11
n0
C12
n0
C13
n0
C14
n0
C15
n0
C16
n0
C17
n0
C18
n0
C19
n0
C20
n0
C21
n0
C22
n0
C23
n0
O0 0
o54
4
o2
n6
o2
v0
v2
o2
n6
o2
v0
v3
o2
n16
o2
v1
v2
o2
n16
o2
v1
v3
k32
7
14
24
34
41
48
55
62
69
76
77
78
79
80
81
82
83
84
85
86
87
88
89
90
91
92
93
94
95
96
97
98
J0 7
0 0
1 0
2 -2.5
4 0.5
6 -1.5
8 -0.5
10 1
J1 7
0 0
1 0
3 -1.5
5 1.5
7 -0.5
9 0.5
11 1
J2 7
0 0
1 0
2 0
4 3
6 1
8 2
12 -1
J3 7
0 0
1 0
3 0
5 3
7 1
9 2
13 -1
J4 6
0 0
2 0
3 0
4 1
5 1
18 1
J5 6
1 0
2 0
3 0
6 1
7 1
19 1
J6 6
0 0
2 0
3 0
4 1
5 1
21 -1
J7 6
1 0
2 0
3 0
6 1
7 1
22 -1
J8 2
0 1
1 1
J9 5
2 1
4 1
6 1
8 1
14 1
J10 5
3 1
5 1
7 1
9 1
15 1
J11 5
2 1
4 1
6 1
8 1
16 -1
J12 5
3 1
5 1
7 1
9 1
17 -1
J13 3
8 1
9 1
20 1
J14 3
8 1
9 1
23 -1
J15 2
4 1
24 1
J16 2
5 1
25 1
J17 2
6 1
26 1
J18 2
7 1
27 1
J19 2
8 1
28 1
J20 2
9 1
29 1
J21 3
2 1
3 1
30 1
J22 2
2 1
31 1
J23 2
3 1
32 1
G0 10
0 0
1 0
2 -9
3 -15
4 -3
5 -9
6 7
7 1
8 1
9 -5
